Maximize
2x1 + 20x2 + 20x3 + 30x4 + 40x5 + 30x6 + 60x7 + 10x8 + 21x9 + 12x10 + 2x11
Subject To
c0: 15x1 + 100x2 + 90x3 + 60x4 + 40x5 + 15x6 + 10x7 + 1x8 + 12x9 + 12x10 + 100x11 <= 101
Bounds
0 <= x1
0 <= x2
0 <= x3
0 <= x4
0 <= x5
0 <= x6
0 <= x7
0 <= x8
0 <= x9
0 <= x10
0 <= x11
Generals
x1 x2 x3 x4 x5 x6 x7 x8 x9 x10 x11 
END
